W=6;
H=3;

MAX_TIME=11;
MAX_TRACKS=7;
SEMAPHORE_SUPPLY=1;

TARGET=(2,6);

TRAINS=[(1,2,LEFT),(3,2,LEFT)];
DECOYS=[];

INIT_POS=[
(1,2,STRAIGHT_RL),
(2,3,STRAIGHT_RL),
(2,5,STRAIGHT_RL),
(2,6,STRAIGHT_RL),
(3,2,STRAIGHT_RL),
];
TUNNEL_PAIRS=[];

GATES=[
(2,5,1,false),
];
ACTIVATIONS=[
(2,3,1),
];

DSWITCHES=[];
STATIONS=[];
